c CNF file corresponding to a (partial) station packing problem.
p cnf 2804 159
2793 2794 2795 2796 2797 2798 2799 2800 2801 2802 2803 2804 0
-2793 -2794 0
-2793 -2795 0
-2793 -2796 0
-2793 -2797 0
-2793 -2798 0
-2793 -2799 0
-2793 -2800 0
-2793 -2801 0
-2793 -2802 0
-2793 -2803 0
-2793 -2804 0
-2794 -2795 0
-2794 -2796 0
-2794 -2797 0
-2794 -2798 0
-2794 -2799 0
-2794 -2800 0
-2794 -2801 0
-2794 -2802 0
-2794 -2803 0
-2794 -2804 0
-2795 -2796 0
-2795 -2797 0
-2795 -2798 0
-2795 -2799 0
-2795 -2800 0
-2795 -2801 0
-2795 -2802 0
-2795 -2803 0
-2795 -2804 0
-2796 -2797 0
-2796 -2798 0
-2796 -2799 0
-2796 -2800 0
-2796 -2801 0
-2796 -2802 0
-2796 -2803 0
-2796 -2804 0
-2797 -2798 0
-2797 -2799 0
-2797 -2800 0
-2797 -2801 0
-2797 -2802 0
-2797 -2803 0
-2797 -2804 0
-2798 -2799 0
-2798 -2800 0
-2798 -2801 0
-2798 -2802 0
-2798 -2803 0
-2798 -2804 0
-2799 -2800 0
-2799 -2801 0
-2799 -2802 0
-2799 -2803 0
-2799 -2804 0
-2800 -2801 0
-2800 -2802 0
-2800 -2803 0
-2800 -2804 0
-2801 -2802 0
-2801 -2803 0
-2801 -2804 0
-2802 -2803 0
-2802 -2804 0
-2803 -2804 0
1 2 3 4 5 6 7 8 9 10 11 12 13 14 0
-1 -2 0
-1 -3 0
-1 -4 0
-1 -5 0
-1 -6 0
-1 -7 0
-1 -8 0
-1 -9 0
-1 -10 0
-1 -11 0
-1 -12 0
-1 -13 0
-1 -14 0
-2 -3 0
-2 -4 0
-2 -5 0
-2 -6 0
-2 -7 0
-2 -8 0
-2 -9 0
-2 -10 0
-2 -11 0
-2 -12 0
-2 -13 0
-2 -14 0
-3 -4 0
-3 -5 0
-3 -6 0
-3 -7 0
-3 -8 0
-3 -9 0
-3 -10 0
-3 -11 0
-3 -12 0
-3 -13 0
-3 -14 0
-4 -5 0
-4 -6 0
-4 -7 0
-4 -8 0
-4 -9 0
-4 -10 0
-4 -11 0
-4 -12 0
-4 -13 0
-4 -14 0
-5 -6 0
-5 -7 0
-5 -8 0
-5 -9 0
-5 -10 0
-5 -11 0
-5 -12 0
-5 -13 0
-5 -14 0
-6 -7 0
-6 -8 0
-6 -9 0
-6 -10 0
-6 -11 0
-6 -12 0
-6 -13 0
-6 -14 0
-7 -8 0
-7 -9 0
-7 -10 0
-7 -11 0
-7 -12 0
-7 -13 0
-7 -14 0
-8 -9 0
-8 -10 0
-8 -11 0
-8 -12 0
-8 -13 0
-8 -14 0
-9 -10 0
-9 -11 0
-9 -12 0
-9 -13 0
-9 -14 0
-10 -11 0
-10 -12 0
-10 -13 0
-10 -14 0
-11 -12 0
-11 -13 0
-11 -14 0
-12 -13 0
-12 -14 0
-13 -14 0
